9
0 73 33 57 56 62 13 94 20
73 0 36 16 53 46 69 69 60
33 36 0 50 60 80 58 78 65
57 16 50 0 65 51 25 90 35
56 53 60 65 0 81 84 66 81
62 46 80 51 81 0 70 53 48
13 69 58 25 84 70 0 44 23
94 69 78 90 66 53 44 0 89
20 60 65 35 81 48 23 89 0
